nApps = 85
nRes = 6
nActs = 180
nNetworks = 4

assignmentToResources = [1,1,1,1,2,2,1,2,1,1,1,2,1,2,1,1,2,1,2,1,1,1,1,2,2,1,2,2,2,2,2,1,1,2,2,1,1,1,2,1,1,1,1,2,1,1,2,2,2,2,3,3,3,3,3,3,3,3,4,4,4,4,4,4,4,3,4,3,3,4,3,4,4,3,3,3,3,4,4,3,3,3,3,3,4,4,4,4,4,4,3,3,4,3,3,4,3,3,3,3,3,3,4,5,3,6,4,5,3,6,4,5,4,5,4,5,3,6,4,5,3,6,3,6,4,5,3,6,6,6,6,6,6,6,6,6,5,5,5,5,5,5,5,6,5,6,6,5,6,5,5,6,6,6,6,5,5,6,6,6,6,6,5,5,5,5,5,5,6,6,5,6,6,5,6,6,6,6,6,6];

processingTimes = [136,144,64,120,80,88,120,128,64,128,136,160,128,128,104,160,104,136,160,56,96,136,136,128,80,112,128,144,96,112,104,120,128,80,88,112,160,72,112,120,112,80,144,64,48,136,56,96,72,64,3,3,5000,3,13,5,4,4,1500,4,1500,3,5000,3,3,4,1500,3,13,4,4,4,5000,4,3,1500,3,3,4,3,3,4,5000,5000,3,4,3,13,3,4,3,3,5000,5,4,3,5,5000,3,5,1500,4,4,4,3,3,4,4,4,4,4,4,1500,1500,3,3,3000,3000,3,3,3,3,3,3,8,8,1500,1500,3,3,5000,3,13,5,4,4,1500,4,1500,3,5000,3,3,4,1500,3,13,4,4,4,5000,4,3,1500,3,3,4,3,3,4,5000,5000,3,4,3,13,3,4,3,3,5000,5,4,3,5,5000,3,5,1500,4];

periods = [100000,100000,100000,20000,10000,100000,10000,10000,20000,20000,20000,10000,20000,100000,20000,10000,10000,20000,20000,10000,10000,100000,20000,20000,100000,100000,50000,20000,20000,10000,20000,10000,10000,2000,100000,100000,100000,10000,10000,100000,100000,50000,10000,20000,10000,10000,10000,20000,20000,10000,100000,100000,100000,100000,20000,20000,20000,20000,10000,10000,10000,100000,100000,100000,100000,10000,10000,20000,20000,10000,20000,100000,100000,20000,20000,10000,10000,10000,10000,20000,20000,10000,100000,100000,50000,20000,20000,10000,10000,20000,10000,10000,100000,100000,100000,10000,100000,50000,10000,10000,10000,10000,100000,100000,100000,100000,10000,10000,10000,10000,10000,10000,10000,10000,20000,20000,20000,20000,20000,20000,20000,20000,20000,20000,20000,20000,10000,10000,100000,100000,100000,100000,20000,20000,20000,20000,10000,10000,10000,100000,100000,100000,100000,10000,10000,20000,20000,10000,20000,100000,100000,20000,20000,10000,10000,10000,10000,20000,20000,10000,100000,100000,50000,20000,20000,10000,10000,20000,10000,10000,100000,100000,100000,10000,100000,50000,10000,10000,10000,10000];

assignmentToClusters = [1,2,3,4,5,6,7,8,9,10,11,5,12,1,13,14,15,16,17,18,19,1,11,11,20,21,22,10,11,18,16,23,5,24,1,21,25,5,7,26,27,28,29,13,30,31,32,13,9,33,34,35,36,37,38,39,40,41,42,43,44,45,46,47,48,49,50,51,52,53,54,55,56,57,58,59,60,61,62,63,64,65,66,67,68,69,70,71,72,73,74,75,76,77,78,79,80,81,82,83,84,85,1,1,1,1,5,5,5,5,5,5,7,7,9,9,10,10,11,11,11,11,13,13,16,16,18,18,34,35,36,37,38,39,40,41,42,43,44,45,46,47,48,49,50,51,52,53,54,55,56,57,58,59,60,61,62,63,64,65,66,67,68,69,70,71,72,73,74,75,76,77,78,79,80,81,82,83,84,85];

precedenceAdjList = [[103],[],[],[],[],[],[113],[],[115],[],[119],[109],[],[34],[],[],[],[125],[],[],[],[],[10],[121],[],[],[],[117],[],[127],[],[],[107],[],[105],[25],[],[111],[],[],[],[],[],[123],[],[],[],[43],[],[],[],[],[],[],[],[],[],[],[],[],[],[],[],[],[],[],[],[],[],[],[],[],[],[],[],[],[],[],[],[],[],[],[],[],[],[],[],[],[],[],[],[],[],[],[],[],[],[],[],[],[],[],[13],[102],[21],[104],[4],[106],[32],[108],[11],[110],[38],[112],[48],[114],[9],[116],[28],[118],[22],[120],[14],[122],[30],[124],[19],[126],[50],[51],[52],[53],[54],[55],[56],[57],[58],[59],[60],[61],[62],[63],[64],[65],[66],[67],[68],[69],[70],[71],[72],[73],[74],[75],[76],[77],[78],[79],[80],[81],[82],[83],[84],[85],[86],[87],[88],[89],[90],[91],[92],[93],[94],[95],[96],[97],[98],[99],[100],[101]];